20246768969957785985011,14,1,2,012,9,1,2,07,4,1,2,012,6,1,2,014,5,1,2,03,14,1,2,06,13,1,2,07,6,1,2,014,10,1,2,06,9,1,2,010,15,1,2,014,7,1,2,014,12,1,2,03,14,1,2,013,6,1,2,01,5,1,2,010,13,1,2,02,1,1,2,07,12,1,2,013,12,1,2,04,7,1,2,09,3,1,2,08,12,1,2,015,12,1,2,012,1,1,2,013,8,1,2,013,7,1,2,015,3,1,2,09,14,1,2,013,11,1,2,02,15,1,2,06,14,1,2,06,10,1,2,08,12,1,2,08,3,1,2,04,4,1,2,013,9,1,2,05,7,1,2,015,5,1,2,010,15,1,2,06,14,1,2,03,2,1,2,08,3,1,2,09,4,1,2,014,2,1,2,08,13,1,2,04,7,1,2,06,3,1,2,012,14,1,2,01,1,1,2,0